p tw 457 1025
0 1
0 15
1 16
1 292
2 3
2 4
2 275
3 4
3 372
3 393
4 293
5 6
5 7
5 166
5 167
5 175
5 225
5 212
5 375
5 226
6 7
6 313
6 83
6 135
6 423
7 142
7 135
7 166
7 211
7 212
7 368
7 427
8 9
8 10
8 34
8 35
8 36
9 10
10 371
11 12
11 13
11 44
11 72
11 125
11 365
12 13
12 14
12 15
12 16
12 248
12 284
12 160
12 169
12 355
12 280
12 367
13 101
13 367
13 193
13 44
13 355
14 15
14 16
14 169
14 335
14 73
14 336
15 16
15 46
15 336
15 303
15 322
16 292
17 18
17 19
17 75
17 141
17 26
17 79
18 19
18 203
18 348
19 75
19 203
19 28
19 79
19 314
19 197
19 216
20 21
20 210
21 96
21 223
21 398
21 299
21 453
21 304
21 455
22 23
22 24
22 66
22 109
22 168
22 359
22 360
22 297
22 415
23 24
23 98
23 371
23 102
23 332
24 297
24 298
24 37
24 344
25 26
25 27
25 28
25 92
25 196
25 326
25 218
25 334
25 141
25 219
25 317
25 105
25 197
26 27
26 28
26 220
26 315
26 184
26 248
26 65
26 218
26 318
26 79
27 28
27 91
27 388
28 79
28 334
29 30
29 31
29 48
29 303
30 31
30 44
30 195
30 89
30 169
31 169
32 33
32 124
32 442
33 124
33 129
33 254
33 40
33 128
34 35
34 36
34 419
34 420
35 36
35 50
35 341
35 342
35 343
36 310
37 38
37 39
37 110
37 109
37 337
37 344
38 39
38 106
38 107
40 41
40 56
40 58
40 236
40 128
40 130
40 450
40 452
41 236
41 420
42 43
42 62
42 63
42 261
42 320
43 236
43 320
44 45
44 72
44 125
44 195
44 350
44 355
45 195
45 325
46 47
46 48
47 48
47 330
47 403
47 331
49 50
49 51
49 52
49 417
49 418
50 51
50 52
50 341
50 342
50 343
51 52
51 260
51 261
52 242
52 243
52 244
52 245
53 54
53 55
53 159
53 431
54 55
54 158
54 307
55 158
56 250
56 276
56 130
56 425
57 58
57 59
57 290
57 394
58 59
58 123
58 124
58 236
59 124
60 61
60 155
60 340
60 162
60 267
60 153
60 349
60 446
61 115
62 63
62 384
63 114
64 65
64 147
64 148
65 99
65 149
65 323
65 219
65 218
65 318
66 386
66 387
66 359
66 406
67 68
67 83
67 95
67 316
68 85
68 135
68 136
68 86
68 437
69 70
69 71
70 71
70 113
71 302
71 376
71 392
72 305
72 350
73 74
73 336
74 248
74 349
75 141
75 220
75 348
76 77
76 169
77 160
77 161
78 79
78 220
79 315
79 214
80 81
80 96
80 304
81 134
81 248
82 83
82 316
82 380
83 213
83 86
83 208
83 295
83 95
83 316
83 85
83 313
83 135
83 423
83 209
84 85
84 86
85 86
85 135
85 136
85 313
86 208
86 295
87 88
87 265
87 266
88 347
88 394
89 90
89 169
90 441
90 447
91 92
91 388
93 94
93 95
93 268
93 269
94 95
95 316
96 97
96 98
96 304
96 223
96 398
97 98
97 168
98 231
98 332
98 333
98 371
98 168
98 253
98 398
98 224
98 304
98 406
99 100
99 149
100 196
100 197
100 148
101 280
102 103
102 453
102 332
103 435
103 455
104 105
104 201
104 202
105 197
106 107
106 403
106 404
107 119
107 376
107 377
107 378
108 109
108 386
108 398
109 168
109 337
109 344
109 359
109 398
109 436
110 248
110 398
111 112
111 113
111 188
112 113
112 156
112 186
112 239
112 240
112 241
112 407
114 134
114 164
114 165
114 274
114 312
114 352
114 353
115 179
115 446
116 117
116 118
116 119
116 143
116 157
117 118
117 119
117 298
117 374
118 119
118 369
119 376
119 377
119 378
120 121
120 122
120 126
120 127
121 122
121 158
122 171
122 172
122 158
122 187
123 124
123 146
124 235
124 129
124 254
124 401
124 442
124 425
124 432
124 438
125 280
125 305
125 365
126 127
127 363
127 369
128 129
128 130
128 246
128 249
128 320
129 130
129 254
129 246
129 250
129 248
129 351
129 347
129 439
129 442
130 450
130 425
131 132
131 133
131 134
131 139
131 140
132 133
132 134
132 257
132 272
132 273
132 274
132 165
132 358
132 421
132 373
132 422
132 354
133 134
133 191
133 259
133 358
134 164
134 165
134 248
134 255
134 264
134 259
134 288
135 136
135 166
135 248
135 416
135 389
135 427
135 423
136 295
136 338
137 138
137 311
137 451
138 182
138 187
139 140
139 273
139 354
140 257
141 219
141 317
141 326
141 388
142 389
143 144
143 145
143 157
144 145
144 221
144 222
144 330
144 331
145 221
146 309
146 324
147 148
147 193
147 281
147 194
149 413
150 151
150 152
150 267
151 152
151 309
151 310
151 311
153 154
153 155
153 174
153 181
153 349
153 446
154 155
154 416
155 179
155 180
155 181
156 192
156 232
158 159
158 307
158 339
158 356
158 187
159 306
159 307
159 431
160 161
160 169
160 355
161 170
161 365
162 163
162 267
163 301
163 222
163 408
164 165
164 272
164 454
165 274
165 286
165 358
166 167
166 175
166 208
167 226
167 227
168 253
168 398
169 170
169 335
169 355
169 292
169 336
169 365
170 365
171 172
171 289
172 356
172 289
172 417
173 174
173 181
173 349
173 409
173 221
173 395
174 181
175 227
175 389
175 208
176 177
176 178
176 182
176 240
176 339
177 178
177 306
177 366
178 183
179 180
179 181
179 446
180 181
180 362
180 370
180 229
180 385
181 222
181 361
181 362
181 271
181 408
181 349
181 409
182 183
182 189
182 240
182 339
182 241
182 379
182 187
182 366
182 285
182 306
182 407
184 185
184 248
185 241
185 407
186 234
187 188
187 189
188 189
188 192
190 191
190 273
190 288
190 255
190 444
191 259
191 206
191 204
191 422
191 288
191 426
191 443
192 232
193 194
193 195
193 281
194 195
195 325
196 197
197 216
198 199
198 200
198 262
198 263
199 200
199 216
199 314
201 202
201 293
201 294
203 348
204 205
204 206
204 258
204 287
204 422
205 206
205 328
205 433
207 208
207 209
207 308
207 423
208 209
208 295
210 223
210 224
211 212
211 368
211 397
211 301
211 340
212 225
212 316
212 375
213 308
214 215
214 216
214 232
214 233
215 216
215 232
216 314
217 218
217 219
217 284
218 219
218 334
218 318
219 317
220 315
220 348
221 222
221 238
221 229
221 237
221 385
221 395
222 361
222 408
223 224
223 398
224 304
224 406
225 316
226 227
227 389
228 229
228 230
228 296
228 349
228 399
229 230
229 385
230 237
230 238
231 252
231 406
232 233
233 378
233 434
234 239
234 285
235 424
235 425
236 320
236 420
237 238
237 385
239 240
239 241
239 285
240 241
240 247
240 248
240 339
240 307
240 356
240 402
240 431
241 379
241 407
242 243
242 244
242 245
242 325
242 456
243 244
243 245
243 383
243 391
244 245
244 300
244 405
245 345
245 445
246 250
247 248
247 449
248 284
248 349
248 351
248 416
248 398
249 250
250 276
251 252
251 253
251 333
252 253
252 406
253 398
254 400
254 424
255 256
255 264
255 444
256 259
258 259
258 287
258 410
258 435
259 264
259 288
260 261
261 320
262 263
262 302
263 412
263 413
265 266
265 282
265 327
265 328
265 329
268 269
268 321
268 448
269 440
270 271
270 370
270 409
272 273
272 274
272 454
273 274
273 288
273 354
274 286
275 279
275 329
275 430
276 450
276 452
277 278
277 279
277 353
278 279
279 329
279 430
280 305
280 367
281 282
281 283
282 283
282 327
282 328
282 329
285 306
285 407
286 351
287 435
288 426
289 290
289 291
289 417
290 291
291 347
292 336
292 365
293 294
294 396
294 397
295 338
296 395
297 298
298 374
299 300
299 453
300 405
301 340
302 376
302 392
303 322
304 406
305 350
306 307
306 366
306 407
307 356
308 423
309 310
309 311
309 324
310 311
311 451
312 454
316 380
317 318
317 319
318 319
319 323
321 322
321 448
325 456
326 388
327 328
327 329
327 341
328 329
328 433
329 430
330 331
330 395
330 403
335 355
336 365
337 345
338 437
339 356
339 379
341 342
341 343
342 343
342 377
345 445
346 347
346 414
347 394
347 432
347 439
347 442
349 385
349 395
349 399
349 446
349 409
352 353
352 384
356 357
356 402
357 431
359 360
359 398
359 406
360 387
360 415
361 428
362 370
363 364
363 369
364 440
364 441
368 397
370 409
372 373
372 393
373 422
375 382
376 377
376 378
376 392
377 378
378 434
380 390
380 391
381 382
381 383
382 383
383 391
384 421
384 422
385 395
386 387
386 398
386 436
387 415
389 427
390 391
392 410
392 411
395 399
396 397
400 401
400 424
402 431
403 404
410 411
410 435
412 413
414 438
414 439
417 418
419 420
421 422
424 425
425 432
425 438
426 443
426 444
428 429
428 430
429 430
432 442
432 449
432 438
435 455
438 439
439 442
440 441
441 447
442 449
443 444
450 452
